% -------------- Parameters --------------- %

prioritiseTaking = false;

domainFilter = true;

predFilter = true;

% ------------- Assembly data ------------- %

nbrTasks = 2;
nbrFixtures = 0;
nbrMachines = 1;
nbrTools = 2;
nbrTrays = 1;
nbrOutputs = 1;
name = ["Take comp","Put comp","Start dummy1","Goal dummy1"];

duration = [5,10,0,0];

% Trays
% 1: Comp Tray
tray = [1,0];

% Outputs
% 1: Output
out_put = [0,1];

% Fixtures
fixture = [0,0];

% Components
% 1: Comp
componentsUsed = [{1},{1}];
nbrComponents = 1;

taskSubComponents = [{1},{1}];
subComponents = [{}];
taskCompleteSubComponents = [{},{}];

componentCreated = [0,0];

% putting a component
putting = {2};

% mounting a component
mounting = {};

% taking a component
taking = {1};

% moving a component
moving = {};

concurrentTasks = [];
nbrConcurrentGroups = 0;

tasksOutOfRange=[{}];

order = [||];
maxOrderedLength = 0;
orderedGroups = 0;

timeMatrix3D = array4d(1..3,1..2,1..2,1..2,[0,68,68,0,1,66,66,1,1,66,66,1,0,64,64,0,1,67,67,1,2,65,65,2]);
timeMatrix3DDepth = 2;

% Tools
% 1: tool2
% 2: tool1
toolNeeded = [2,2,0];
